c SaDiCaL SAT Solver
c Copyright (C) 2018 by Armin Biere JKU
c
c Version 00n 481e664a7ffa9a307d3a0dad517daf5dde1989ef
c Compiler Apple clang version 15.0.0 (clang-1500.3.9.4)
c Options gcc -Wall -O3 -DNDEBUG -DNLOG
c proof path 'tests/ph4.prf'
c
c all options have default values
c
c parsing 'tests/ph4.cnf'
c found 'p cnf 20 45' header
c parsed DIMACS in 0.00 seconds
c 
c
c   time      reduced redundant irredundant
c       space  restarts glue    variables
c           level conflicts size  remaining
c
c s 0.00 0.0 0.8 0 1 6 0 1.8 1.8 41 19 95%
c s 0.00 0.0 0.8 0 2 12 1 1.8 2.1 38 18 90%
c s 0.00 0.0 0.8 0 2 26 1 1.8 2.0 36 17 85%
c s 0.00 0.0 0.8 0 2 28 2 1.8 2.0 32 16 80%
c s 0.00 0.0 0.7 0 2 29 2 1.7 1.9 29 15 75%
c s 0.00 0.0 0.7 0 2 34 2 1.7 1.9 27 14 70%
c s 0.00 0.0 0.6 0 2 35 2 1.6 1.8 23 13 65%
c s 0.00 0.0 0.6 0 2 36 2 1.6 1.8 20 12 60%
c s 0.00 0.0 0.6 0 2 37 1 1.6 1.7 12 8 40%
c 0 0.00 0.0 0.5 0 2 39 1 1.5 1.7 12 0 0%
c
s UNSATISFIABLE
c
c simplifications:             9           4  conflicts/simplification  100%
c reductions:                  0           0  conflicts/reduction       100%
c restarts:                    2          20  conflicts/restart         100%
c conflicts:                  39       24299  conflicts/sec              71%
c decisions:                  27       16822  decisions/sec              49%
c propagations:              522         0.3  millions/sec               70%
c
c pure:                        0           0% of look-aheads
c look-ahead:                 27         100% of outer decisions         49%
c pruned:                     15          38% of outer conflicts         27%
c generated reducts:          30          50% satisfiable
c average size:               16          40% of all clauses
c pruning failed:             15          50% per reduct
c filter checks:             110          22% of outer satisfied clauses
c average filtered:          0.5           3% per reduct
c assumed literals:          158         1.4  per filter check
c
c collected clauses:        0.00 MB       78% of allocated clauses       12%
c allocated clauses:        0.00 MB        9% of allocated memory        15%
c maximum heap:             0.01 MB        0% of resident set size       64%
c
c looking:                  0.00 sec       1% of process time
c filtering:                0.00 sec       2% of process time
c pruning:                  0.00 sec      13% of process time
c simplifying:              0.00 sec       1% of process time
c
c resident set size:     1104.00 MB
c total process time:       0.00 sec
